\ Model initialLPModel
\ LP format - for model browsing. Use MPS format to capture full model detail.
Maximize
  0.1 C0 + 0.1 C1 + 0.1 C2 + 0.1 C3 + 0.1 C4 + 0.1 C5 + 0.1 C6 + 0.1 C7
   + 0.1 C8 + 0.1 C9 - 0.1 C10 - 0.1 C11 - 0.1 C12 - 0.1 C13 - 0.1 C14
   - 0.1 C15 - 0.1 C16 - 0.1 C17 - 0.1 C18 - 0.1 C19
Subject To
 R0: C20 + C21 + C22 + C23 + C24 + C25 + C26 + C27 + C28 + C29 = 2
 R1: 10 C0 - C20 - C24 - C28 <= 8
 R2: - 10 C0 + C20 + C24 + C28 <= 1
 R3: 10 C1 - C20 - C21 - C22 - C23 - C24 - C25 - C26 - C27 - C28 - C29
   <= 8
 R4: - 10 C1 + C20 + C21 + C22 + C23 + C24 + C25 + C26 + C27 + C28 + C29
   <= 1
 R5: 10 C2 - C21 - C22 - C23 - C25 - C26 - C27 - C29 <= 8
 R6: - 10 C2 + C21 + C22 + C23 + C25 + C26 + C27 + C29 <= 1
 R7: 10 C3 <= 8
 R8: - 10 C3 <= 1
 R9: 10 C4 - C20 - C24 - C28 <= 8
 R10: - 10 C4 + C20 + C24 + C28 <= 1
 R11: 10 C5 - C20 - C21 - C22 - C23 - C24 - C25 - C26 - C27 - C28 - C29
   <= 8
 R12: - 10 C5 + C20 + C21 + C22 + C23 + C24 + C25 + C26 + C27 + C28 + C29
   <= 1
 R13: 10 C6 - C21 - C22 - C23 - C25 - C26 - C27 - C29 <= 8
 R14: - 10 C6 + C21 + C22 + C23 + C25 + C26 + C27 + C29 <= 1
 R15: 10 C7 <= 8
 R16: - 10 C7 <= 1
 R17: 10 C8 - C20 - C24 - C28 <= 8
 R18: - 10 C8 + C20 + C24 + C28 <= 1
 R19: 10 C9 - C20 - C21 - C22 - C23 - C24 - C25 - C26 - C27 - C28 - C29
   <= 8
 R20: - 10 C9 + C20 + C21 + C22 + C23 + C24 + C25 + C26 + C27 + C28 + C29
   <= 1
 R21: 10 C10 - C21 - C22 - C23 - C25 - C26 - C27 - C29 <= 8
 R22: - 10 C10 + C21 + C22 + C23 + C25 + C26 + C27 + C29 <= 1
 R23: 10 C11 <= 8
 R24: - 10 C11 <= 1
 R25: 10 C12 - C20 - C24 - C28 <= 8
 R26: - 10 C12 + C20 + C24 + C28 <= 1
 R27: 10 C13 - C20 - C21 - C22 - C23 - C24 - C25 - C26 - C27 - C28 - C29
   <= 8
 R28: - 10 C13 + C20 + C21 + C22 + C23 + C24 + C25 + C26 + C27 + C28 + C29
   <= 1
 R29: 10 C14 - C21 - C22 - C23 - C25 - C26 - C27 - C29 <= 8
 R30: - 10 C14 + C21 + C22 + C23 + C25 + C26 + C27 + C29 <= 1
 R31: 10 C15 <= 8
 R32: - 10 C15 <= 1
 R33: 10 C16 - C20 - C24 - C28 <= 8
 R34: - 10 C16 + C20 + C24 + C28 <= 1
 R35: 10 C17 - C20 - C21 - C22 - C23 - C24 - C25 - C26 - C27 - C28 - C29
   <= 8
 R36: - 10 C17 + C20 + C21 + C22 + C23 + C24 + C25 + C26 + C27 + C28 + C29
   <= 1
 R37: 10 C18 - C21 - C22 - C23 - C25 - C26 - C27 - C29 <= 8
 R38: - 10 C18 + C21 + C22 + C23 + C25 + C26 + C27 + C29 <= 1
 R39: 10 C19 <= 8
 R40: - 10 C19 <= 1
Bounds
Binaries
 C0 C1 C2 C3 C4 C5 C6 C7 C8 C9 C10 C11 C12 C13 C14 C15 C16 C17 C18 C19 C20
 C21 C22 C23 C24 C25 C26 C27 C28 C29
End
